c created by edge2cnf
p cnf 500 3100
-1 -2 0
-1 -3 0
-1 -4 0
-1 -5 0
-2 -3 0
-2 -4 0
-2 -5 0
-3 -4 0
-3 -5 0
-4 -5 0
1 2 3 4 5 0
-6 -7 0
-6 -8 0
-6 -9 0
-6 -10 0
-7 -8 0
-7 -9 0
-7 -10 0
-8 -9 0
-8 -10 0
-9 -10 0
6 7 8 9 10 0
-11 -12 0
-11 -13 0
-11 -14 0
-11 -15 0
-12 -13 0
-12 -14 0
-12 -15 0
-13 -14 0
-13 -15 0
-14 -15 0
11 12 13 14 15 0
-16 -17 0
-16 -18 0
-16 -19 0
-16 -20 0
-17 -18 0
-17 -19 0
-17 -20 0
-18 -19 0
-18 -20 0
-19 -20 0
16 17 18 19 20 0
-21 -22 0
-21 -23 0
-21 -24 0
-21 -25 0
-22 -23 0
-22 -24 0
-22 -25 0
-23 -24 0
-23 -25 0
-24 -25 0
21 22 23 24 25 0
-26 -27 0
-26 -28 0
-26 -29 0
-26 -30 0
-27 -28 0
-27 -29 0
-27 -30 0
-28 -29 0
-28 -30 0
-29 -30 0
26 27 28 29 30 0
-31 -32 0
-31 -33 0
-31 -34 0
-31 -35 0
-32 -33 0
-32 -34 0
-32 -35 0
-33 -34 0
-33 -35 0
-34 -35 0
31 32 33 34 35 0
-36 -37 0
-36 -38 0
-36 -39 0
-36 -40 0
-37 -38 0
-37 -39 0
-37 -40 0
-38 -39 0
-38 -40 0
-39 -40 0
36 37 38 39 40 0
-41 -42 0
-41 -43 0
-41 -44 0
-41 -45 0
-42 -43 0
-42 -44 0
-42 -45 0
-43 -44 0
-43 -45 0
-44 -45 0
41 42 43 44 45 0
-46 -47 0
-46 -48 0
-46 -49 0
-46 -50 0
-47 -48 0
-47 -49 0
-47 -50 0
-48 -49 0
-48 -50 0
-49 -50 0
46 47 48 49 50 0
-51 -52 0
-51 -53 0
-51 -54 0
-51 -55 0
-52 -53 0
-52 -54 0
-52 -55 0
-53 -54 0
-53 -55 0
-54 -55 0
51 52 53 54 55 0
-56 -57 0
-56 -58 0
-56 -59 0
-56 -60 0
-57 -58 0
-57 -59 0
-57 -60 0
-58 -59 0
-58 -60 0
-59 -60 0
56 57 58 59 60 0
-61 -62 0
-61 -63 0
-61 -64 0
-61 -65 0
-62 -63 0
-62 -64 0
-62 -65 0
-63 -64 0
-63 -65 0
-64 -65 0
61 62 63 64 65 0
-66 -67 0
-66 -68 0
-66 -69 0
-66 -70 0
-67 -68 0
-67 -69 0
-67 -70 0
-68 -69 0
-68 -70 0
-69 -70 0
66 67 68 69 70 0
-71 -72 0
-71 -73 0
-71 -74 0
-71 -75 0
-72 -73 0
-72 -74 0
-72 -75 0
-73 -74 0
-73 -75 0
-74 -75 0
71 72 73 74 75 0
-76 -77 0
-76 -78 0
-76 -79 0
-76 -80 0
-77 -78 0
-77 -79 0
-77 -80 0
-78 -79 0
-78 -80 0
-79 -80 0
76 77 78 79 80 0
-81 -82 0
-81 -83 0
-81 -84 0
-81 -85 0
-82 -83 0
-82 -84 0
-82 -85 0
-83 -84 0
-83 -85 0
-84 -85 0
81 82 83 84 85 0
-86 -87 0
-86 -88 0
-86 -89 0
-86 -90 0
-87 -88 0
-87 -89 0
-87 -90 0
-88 -89 0
-88 -90 0
-89 -90 0
86 87 88 89 90 0
-91 -92 0
-91 -93 0
-91 -94 0
-91 -95 0
-92 -93 0
-92 -94 0
-92 -95 0
-93 -94 0
-93 -95 0
-94 -95 0
91 92 93 94 95 0
-96 -97 0
-96 -98 0
-96 -99 0
-96 -100 0
-97 -98 0
-97 -99 0
-97 -100 0
-98 -99 0
-98 -100 0
-99 -100 0
96 97 98 99 100 0
-101 -102 0
-101 -103 0
-101 -104 0
-101 -105 0
-102 -103 0
-102 -104 0
-102 -105 0
-103 -104 0
-103 -105 0
-104 -105 0
101 102 103 104 105 0
-106 -107 0
-106 -108 0
-106 -109 0
-106 -110 0
-107 -108 0
-107 -109 0
-107 -110 0
-108 -109 0
-108 -110 0
-109 -110 0
106 107 108 109 110 0
-111 -112 0
-111 -113 0
-111 -114 0
-111 -115 0
-112 -113 0
-112 -114 0
-112 -115 0
-113 -114 0
-113 -115 0
-114 -115 0
111 112 113 114 115 0
-116 -117 0
-116 -118 0
-116 -119 0
-116 -120 0
-117 -118 0
-117 -119 0
-117 -120 0
-118 -119 0
-118 -120 0
-119 -120 0
116 117 118 119 120 0
-121 -122 0
-121 -123 0
-121 -124 0
-121 -125 0
-122 -123 0
-122 -124 0
-122 -125 0
-123 -124 0
-123 -125 0
-124 -125 0
121 122 123 124 125 0
-126 -127 0
-126 -128 0
-126 -129 0
-126 -130 0
-127 -128 0
-127 -129 0
-127 -130 0
-128 -129 0
-128 -130 0
-129 -130 0
126 127 128 129 130 0
-131 -132 0
-131 -133 0
-131 -134 0
-131 -135 0
-132 -133 0
-132 -134 0
-132 -135 0
-133 -134 0
-133 -135 0
-134 -135 0
131 132 133 134 135 0
-136 -137 0
-136 -138 0
-136 -139 0
-136 -140 0
-137 -138 0
-137 -139 0
-137 -140 0
-138 -139 0
-138 -140 0
-139 -140 0
136 137 138 139 140 0
-141 -142 0
-141 -143 0
-141 -144 0
-141 -145 0
-142 -143 0
-142 -144 0
-142 -145 0
-143 -144 0
-143 -145 0
-144 -145 0
141 142 143 144 145 0
-146 -147 0
-146 -148 0
-146 -149 0
-146 -150 0
-147 -148 0
-147 -149 0
-147 -150 0
-148 -149 0
-148 -150 0
-149 -150 0
146 147 148 149 150 0
-151 -152 0
-151 -153 0
-151 -154 0
-151 -155 0
-152 -153 0
-152 -154 0
-152 -155 0
-153 -154 0
-153 -155 0
-154 -155 0
151 152 153 154 155 0
-156 -157 0
-156 -158 0
-156 -159 0
-156 -160 0
-157 -158 0
-157 -159 0
-157 -160 0
-158 -159 0
-158 -160 0
-159 -160 0
156 157 158 159 160 0
-161 -162 0
-161 -163 0
-161 -164 0
-161 -165 0
-162 -163 0
-162 -164 0
-162 -165 0
-163 -164 0
-163 -165 0
-164 -165 0
161 162 163 164 165 0
-166 -167 0
-166 -168 0
-166 -169 0
-166 -170 0
-167 -168 0
-167 -169 0
-167 -170 0
-168 -169 0
-168 -170 0
-169 -170 0
166 167 168 169 170 0
-171 -172 0
-171 -173 0
-171 -174 0
-171 -175 0
-172 -173 0
-172 -174 0
-172 -175 0
-173 -174 0
-173 -175 0
-174 -175 0
171 172 173 174 175 0
-176 -177 0
-176 -178 0
-176 -179 0
-176 -180 0
-177 -178 0
-177 -179 0
-177 -180 0
-178 -179 0
-178 -180 0
-179 -180 0
176 177 178 179 180 0
-181 -182 0
-181 -183 0
-181 -184 0
-181 -185 0
-182 -183 0
-182 -184 0
-182 -185 0
-183 -184 0
-183 -185 0
-184 -185 0
181 182 183 184 185 0
-186 -187 0
-186 -188 0
-186 -189 0
-186 -190 0
-187 -188 0
-187 -189 0
-187 -190 0
-188 -189 0
-188 -190 0
-189 -190 0
186 187 188 189 190 0
-191 -192 0
-191 -193 0
-191 -194 0
-191 -195 0
-192 -193 0
-192 -194 0
-192 -195 0
-193 -194 0
-193 -195 0
-194 -195 0
191 192 193 194 195 0
-196 -197 0
-196 -198 0
-196 -199 0
-196 -200 0
-197 -198 0
-197 -199 0
-197 -200 0
-198 -199 0
-198 -200 0
-199 -200 0
196 197 198 199 200 0
-201 -202 0
-201 -203 0
-201 -204 0
-201 -205 0
-202 -203 0
-202 -204 0
-202 -205 0
-203 -204 0
-203 -205 0
-204 -205 0
201 202 203 204 205 0
-206 -207 0
-206 -208 0
-206 -209 0
-206 -210 0
-207 -208 0
-207 -209 0
-207 -210 0
-208 -209 0
-208 -210 0
-209 -210 0
206 207 208 209 210 0
-211 -212 0
-211 -213 0
-211 -214 0
-211 -215 0
-212 -213 0
-212 -214 0
-212 -215 0
-213 -214 0
-213 -215 0
-214 -215 0
211 212 213 214 215 0
-216 -217 0
-216 -218 0
-216 -219 0
-216 -220 0
-217 -218 0
-217 -219 0
-217 -220 0
-218 -219 0
-218 -220 0
-219 -220 0
216 217 218 219 220 0
-221 -222 0
-221 -223 0
-221 -224 0
-221 -225 0
-222 -223 0
-222 -224 0
-222 -225 0
-223 -224 0
-223 -225 0
-224 -225 0
221 222 223 224 225 0
-226 -227 0
-226 -228 0
-226 -229 0
-226 -230 0
-227 -228 0
-227 -229 0
-227 -230 0
-228 -229 0
-228 -230 0
-229 -230 0
226 227 228 229 230 0
-231 -232 0
-231 -233 0
-231 -234 0
-231 -235 0
-232 -233 0
-232 -234 0
-232 -235 0
-233 -234 0
-233 -235 0
-234 -235 0
231 232 233 234 235 0
-236 -237 0
-236 -238 0
-236 -239 0
-236 -240 0
-237 -238 0
-237 -239 0
-237 -240 0
-238 -239 0
-238 -240 0
-239 -240 0
236 237 238 239 240 0
-241 -242 0
-241 -243 0
-241 -244 0
-241 -245 0
-242 -243 0
-242 -244 0
-242 -245 0
-243 -244 0
-243 -245 0
-244 -245 0
241 242 243 244 245 0
-246 -247 0
-246 -248 0
-246 -249 0
-246 -250 0
-247 -248 0
-247 -249 0
-247 -250 0
-248 -249 0
-248 -250 0
-249 -250 0
246 247 248 249 250 0
-251 -252 0
-251 -253 0
-251 -254 0
-251 -255 0
-252 -253 0
-252 -254 0
-252 -255 0
-253 -254 0
-253 -255 0
-254 -255 0
251 252 253 254 255 0
-256 -257 0
-256 -258 0
-256 -259 0
-256 -260 0
-257 -258 0
-257 -259 0
-257 -260 0
-258 -259 0
-258 -260 0
-259 -260 0
256 257 258 259 260 0
-261 -262 0
-261 -263 0
-261 -264 0
-261 -265 0
-262 -263 0
-262 -264 0
-262 -265 0
-263 -264 0
-263 -265 0
-264 -265 0
261 262 263 264 265 0
-266 -267 0
-266 -268 0
-266 -269 0
-266 -270 0
-267 -268 0
-267 -269 0
-267 -270 0
-268 -269 0
-268 -270 0
-269 -270 0
266 267 268 269 270 0
-271 -272 0
-271 -273 0
-271 -274 0
-271 -275 0
-272 -273 0
-272 -274 0
-272 -275 0
-273 -274 0
-273 -275 0
-274 -275 0
271 272 273 274 275 0
-276 -277 0
-276 -278 0
-276 -279 0
-276 -280 0
-277 -278 0
-277 -279 0
-277 -280 0
-278 -279 0
-278 -280 0
-279 -280 0
276 277 278 279 280 0
-281 -282 0
-281 -283 0
-281 -284 0
-281 -285 0
-282 -283 0
-282 -284 0
-282 -285 0
-283 -284 0
-283 -285 0
-284 -285 0
281 282 283 284 285 0
-286 -287 0
-286 -288 0
-286 -289 0
-286 -290 0
-287 -288 0
-287 -289 0
-287 -290 0
-288 -289 0
-288 -290 0
-289 -290 0
286 287 288 289 290 0
-291 -292 0
-291 -293 0
-291 -294 0
-291 -295 0
-292 -293 0
-292 -294 0
-292 -295 0
-293 -294 0
-293 -295 0
-294 -295 0
291 292 293 294 295 0
-296 -297 0
-296 -298 0
-296 -299 0
-296 -300 0
-297 -298 0
-297 -299 0
-297 -300 0
-298 -299 0
-298 -300 0
-299 -300 0
296 297 298 299 300 0
-301 -302 0
-301 -303 0
-301 -304 0
-301 -305 0
-302 -303 0
-302 -304 0
-302 -305 0
-303 -304 0
-303 -305 0
-304 -305 0
301 302 303 304 305 0
-306 -307 0
-306 -308 0
-306 -309 0
-306 -310 0
-307 -308 0
-307 -309 0
-307 -310 0
-308 -309 0
-308 -310 0
-309 -310 0
306 307 308 309 310 0
-311 -312 0
-311 -313 0
-311 -314 0
-311 -315 0
-312 -313 0
-312 -314 0
-312 -315 0
-313 -314 0
-313 -315 0
-314 -315 0
311 312 313 314 315 0
-316 -317 0
-316 -318 0
-316 -319 0
-316 -320 0
-317 -318 0
-317 -319 0
-317 -320 0
-318 -319 0
-318 -320 0
-319 -320 0
316 317 318 319 320 0
-321 -322 0
-321 -323 0
-321 -324 0
-321 -325 0
-322 -323 0
-322 -324 0
-322 -325 0
-323 -324 0
-323 -325 0
-324 -325 0
321 322 323 324 325 0
-326 -327 0
-326 -328 0
-326 -329 0
-326 -330 0
-327 -328 0
-327 -329 0
-327 -330 0
-328 -329 0
-328 -330 0
-329 -330 0
326 327 328 329 330 0
-331 -332 0
-331 -333 0
-331 -334 0
-331 -335 0
-332 -333 0
-332 -334 0
-332 -335 0
-333 -334 0
-333 -335 0
-334 -335 0
331 332 333 334 335 0
-336 -337 0
-336 -338 0
-336 -339 0
-336 -340 0
-337 -338 0
-337 -339 0
-337 -340 0
-338 -339 0
-338 -340 0
-339 -340 0
336 337 338 339 340 0
-341 -342 0
-341 -343 0
-341 -344 0
-341 -345 0
-342 -343 0
-342 -344 0
-342 -345 0
-343 -344 0
-343 -345 0
-344 -345 0
341 342 343 344 345 0
-346 -347 0
-346 -348 0
-346 -349 0
-346 -350 0
-347 -348 0
-347 -349 0
-347 -350 0
-348 -349 0
-348 -350 0
-349 -350 0
346 347 348 349 350 0
-351 -352 0
-351 -353 0
-351 -354 0
-351 -355 0
-352 -353 0
-352 -354 0
-352 -355 0
-353 -354 0
-353 -355 0
-354 -355 0
351 352 353 354 355 0
-356 -357 0
-356 -358 0
-356 -359 0
-356 -360 0
-357 -358 0
-357 -359 0
-357 -360 0
-358 -359 0
-358 -360 0
-359 -360 0
356 357 358 359 360 0
-361 -362 0
-361 -363 0
-361 -364 0
-361 -365 0
-362 -363 0
-362 -364 0
-362 -365 0
-363 -364 0
-363 -365 0
-364 -365 0
361 362 363 364 365 0
-366 -367 0
-366 -368 0
-366 -369 0
-366 -370 0
-367 -368 0
-367 -369 0
-367 -370 0
-368 -369 0
-368 -370 0
-369 -370 0
366 367 368 369 370 0
-371 -372 0
-371 -373 0
-371 -374 0
-371 -375 0
-372 -373 0
-372 -374 0
-372 -375 0
-373 -374 0
-373 -375 0
-374 -375 0
371 372 373 374 375 0
-376 -377 0
-376 -378 0
-376 -379 0
-376 -380 0
-377 -378 0
-377 -379 0
-377 -380 0
-378 -379 0
-378 -380 0
-379 -380 0
376 377 378 379 380 0
-381 -382 0
-381 -383 0
-381 -384 0
-381 -385 0
-382 -383 0
-382 -384 0
-382 -385 0
-383 -384 0
-383 -385 0
-384 -385 0
381 382 383 384 385 0
-386 -387 0
-386 -388 0
-386 -389 0
-386 -390 0
-387 -388 0
-387 -389 0
-387 -390 0
-388 -389 0
-388 -390 0
-389 -390 0
386 387 388 389 390 0
-391 -392 0
-391 -393 0
-391 -394 0
-391 -395 0
-392 -393 0
-392 -394 0
-392 -395 0
-393 -394 0
-393 -395 0
-394 -395 0
391 392 393 394 395 0
-396 -397 0
-396 -398 0
-396 -399 0
-396 -400 0
-397 -398 0
-397 -399 0
-397 -400 0
-398 -399 0
-398 -400 0
-399 -400 0
396 397 398 399 400 0
-401 -402 0
-401 -403 0
-401 -404 0
-401 -405 0
-402 -403 0
-402 -404 0
-402 -405 0
-403 -404 0
-403 -405 0
-404 -405 0
401 402 403 404 405 0
-406 -407 0
-406 -408 0
-406 -409 0
-406 -410 0
-407 -408 0
-407 -409 0
-407 -410 0
-408 -409 0
-408 -410 0
-409 -410 0
406 407 408 409 410 0
-411 -412 0
-411 -413 0
-411 -414 0
-411 -415 0
-412 -413 0
-412 -414 0
-412 -415 0
-413 -414 0
-413 -415 0
-414 -415 0
411 412 413 414 415 0
-416 -417 0
-416 -418 0
-416 -419 0
-416 -420 0
-417 -418 0
-417 -419 0
-417 -420 0
-418 -419 0
-418 -420 0
-419 -420 0
416 417 418 419 420 0
-421 -422 0
-421 -423 0
-421 -424 0
-421 -425 0
-422 -423 0
-422 -424 0
-422 -425 0
-423 -424 0
-423 -425 0
-424 -425 0
421 422 423 424 425 0
-426 -427 0
-426 -428 0
-426 -429 0
-426 -430 0
-427 -428 0
-427 -429 0
-427 -430 0
-428 -429 0
-428 -430 0
-429 -430 0
426 427 428 429 430 0
-431 -432 0
-431 -433 0
-431 -434 0
-431 -435 0
-432 -433 0
-432 -434 0
-432 -435 0
-433 -434 0
-433 -435 0
-434 -435 0
431 432 433 434 435 0
-436 -437 0
-436 -438 0
-436 -439 0
-436 -440 0
-437 -438 0
-437 -439 0
-437 -440 0
-438 -439 0
-438 -440 0
-439 -440 0
436 437 438 439 440 0
-441 -442 0
-441 -443 0
-441 -444 0
-441 -445 0
-442 -443 0
-442 -444 0
-442 -445 0
-443 -444 0
-443 -445 0
-444 -445 0
441 442 443 444 445 0
-446 -447 0
-446 -448 0
-446 -449 0
-446 -450 0
-447 -448 0
-447 -449 0
-447 -450 0
-448 -449 0
-448 -450 0
-449 -450 0
446 447 448 449 450 0
-451 -452 0
-451 -453 0
-451 -454 0
-451 -455 0
-452 -453 0
-452 -454 0
-452 -455 0
-453 -454 0
-453 -455 0
-454 -455 0
451 452 453 454 455 0
-456 -457 0
-456 -458 0
-456 -459 0
-456 -460 0
-457 -458 0
-457 -459 0
-457 -460 0
-458 -459 0
-458 -460 0
-459 -460 0
456 457 458 459 460 0
-461 -462 0
-461 -463 0
-461 -464 0
-461 -465 0
-462 -463 0
-462 -464 0
-462 -465 0
-463 -464 0
-463 -465 0
-464 -465 0
461 462 463 464 465 0
-466 -467 0
-466 -468 0
-466 -469 0
-466 -470 0
-467 -468 0
-467 -469 0
-467 -470 0
-468 -469 0
-468 -470 0
-469 -470 0
466 467 468 469 470 0
-471 -472 0
-471 -473 0
-471 -474 0
-471 -475 0
-472 -473 0
-472 -474 0
-472 -475 0
-473 -474 0
-473 -475 0
-474 -475 0
471 472 473 474 475 0
-476 -477 0
-476 -478 0
-476 -479 0
-476 -480 0
-477 -478 0
-477 -479 0
-477 -480 0
-478 -479 0
-478 -480 0
-479 -480 0
476 477 478 479 480 0
-481 -482 0
-481 -483 0
-481 -484 0
-481 -485 0
-482 -483 0
-482 -484 0
-482 -485 0
-483 -484 0
-483 -485 0
-484 -485 0
481 482 483 484 485 0
-486 -487 0
-486 -488 0
-486 -489 0
-486 -490 0
-487 -488 0
-487 -489 0
-487 -490 0
-488 -489 0
-488 -490 0
-489 -490 0
486 487 488 489 490 0
-491 -492 0
-491 -493 0
-491 -494 0
-491 -495 0
-492 -493 0
-492 -494 0
-492 -495 0
-493 -494 0
-493 -495 0
-494 -495 0
491 492 493 494 495 0
-496 -497 0
-496 -498 0
-496 -499 0
-496 -500 0
-497 -498 0
-497 -499 0
-497 -500 0
-498 -499 0
-498 -500 0
-499 -500 0
496 497 498 499 500 0
-1 -6 0
-2 -7 0
-3 -8 0
-4 -9 0
-5 -10 0
-6 -11 0
-7 -12 0
-8 -13 0
-9 -14 0
-10 -15 0
-26 -36 0
-27 -37 0
-28 -38 0
-29 -39 0
-30 -40 0
-46 -66 0
-47 -67 0
-48 -68 0
-49 -69 0
-50 -70 0
-51 -61 0
-52 -62 0
-53 -63 0
-54 -64 0
-55 -65 0
-61 -71 0
-62 -72 0
-63 -73 0
-64 -74 0
-65 -75 0
-66 -76 0
-67 -77 0
-68 -78 0
-69 -79 0
-70 -80 0
-86 -91 0
-87 -92 0
-88 -93 0
-89 -94 0
-90 -95 0
-91 -101 0
-92 -102 0
-93 -103 0
-94 -104 0
-95 -105 0
-91 -106 0
-92 -107 0
-93 -108 0
-94 -109 0
-95 -110 0
-101 -106 0
-102 -107 0
-103 -108 0
-104 -109 0
-105 -110 0
-101 -111 0
-102 -112 0
-103 -113 0
-104 -114 0
-105 -115 0
-116 -131 0
-117 -132 0
-118 -133 0
-119 -134 0
-120 -135 0
-131 -141 0
-132 -142 0
-133 -143 0
-134 -144 0
-135 -145 0
-146 -166 0
-147 -167 0
-148 -168 0
-149 -169 0
-150 -170 0
-171 -191 0
-172 -192 0
-173 -193 0
-174 -194 0
-175 -195 0
-191 -201 0
-192 -202 0
-193 -203 0
-194 -204 0
-195 -205 0
-201 -206 0
-202 -207 0
-203 -208 0
-204 -209 0
-205 -210 0
-206 -221 0
-207 -222 0
-208 -223 0
-209 -224 0
-210 -225 0
-261 -281 0
-262 -282 0
-263 -283 0
-264 -284 0
-265 -285 0
-271 -291 0
-272 -292 0
-273 -293 0
-274 -294 0
-275 -295 0
-276 -296 0
-277 -297 0
-278 -298 0
-279 -299 0
-280 -300 0
-286 -296 0
-287 -297 0
-288 -298 0
-289 -299 0
-290 -300 0
-286 -301 0
-287 -302 0
-288 -303 0
-289 -304 0
-290 -305 0
-306 -311 0
-307 -312 0
-308 -313 0
-309 -314 0
-310 -315 0
-361 -366 0
-362 -367 0
-363 -368 0
-364 -369 0
-365 -370 0
-371 -391 0
-372 -392 0
-373 -393 0
-374 -394 0
-375 -395 0
-386 -401 0
-387 -402 0
-388 -403 0
-389 -404 0
-390 -405 0
-406 -426 0
-407 -427 0
-408 -428 0
-409 -429 0
-410 -430 0
-426 -436 0
-427 -437 0
-428 -438 0
-429 -439 0
-430 -440 0
-431 -436 0
-432 -437 0
-433 -438 0
-434 -439 0
-435 -440 0
-436 -451 0
-437 -452 0
-438 -453 0
-439 -454 0
-440 -455 0
-456 -466 0
-457 -467 0
-458 -468 0
-459 -469 0
-460 -470 0
-1 -486 0
-2 -487 0
-3 -488 0
-4 -489 0
-5 -490 0
-1 -491 0
-2 -492 0
-3 -493 0
-4 -494 0
-5 -495 0
-11 -496 0
-12 -497 0
-13 -498 0
-14 -499 0
-15 -500 0
-366 -386 0
-367 -387 0
-368 -388 0
-369 -389 0
-370 -390 0
-436 -446 0
-437 -447 0
-438 -448 0
-439 -449 0
-440 -450 0
-211 -226 0
-212 -227 0
-213 -228 0
-214 -229 0
-215 -230 0
-416 -431 0
-417 -432 0
-418 -433 0
-419 -434 0
-420 -435 0
-246 -251 0
-247 -252 0
-248 -253 0
-249 -254 0
-250 -255 0
-271 -281 0
-272 -282 0
-273 -283 0
-274 -284 0
-275 -285 0
-46 -51 0
-47 -52 0
-48 -53 0
-49 -54 0
-50 -55 0
-71 -91 0
-72 -92 0
-73 -93 0
-74 -94 0
-75 -95 0
-216 -231 0
-217 -232 0
-218 -233 0
-219 -234 0
-220 -235 0
-466 -481 0
-467 -482 0
-468 -483 0
-469 -484 0
-470 -485 0
-11 -31 0
-12 -32 0
-13 -33 0
-14 -34 0
-15 -35 0
-396 -406 0
-397 -407 0
-398 -408 0
-399 -409 0
-400 -410 0
-181 -201 0
-182 -202 0
-183 -203 0
-184 -204 0
-185 -205 0
-16 -26 0
-17 -27 0
-18 -28 0
-19 -29 0
-20 -30 0
-461 -466 0
-462 -467 0
-463 -468 0
-464 -469 0
-465 -470 0
-311 -331 0
-312 -332 0
-313 -333 0
-314 -334 0
-315 -335 0
-51 -66 0
-52 -67 0
-53 -68 0
-54 -69 0
-55 -70 0
-6 -486 0
-7 -487 0
-8 -488 0
-9 -489 0
-10 -490 0
-236 -241 0
-237 -242 0
-238 -243 0
-239 -244 0
-240 -245 0
-201 -211 0
-202 -212 0
-203 -213 0
-204 -214 0
-205 -215 0
-391 -401 0
-392 -402 0
-393 -403 0
-394 -404 0
-395 -405 0
-491 -496 0
-492 -497 0
-493 -498 0
-494 -499 0
-495 -500 0
-351 -361 0
-352 -362 0
-353 -363 0
-354 -364 0
-355 -365 0
-356 -366 0
-357 -367 0
-358 -368 0
-359 -369 0
-360 -370 0
-21 -26 0
-22 -27 0
-23 -28 0
-24 -29 0
-25 -30 0
-476 -486 0
-477 -487 0
-478 -488 0
-479 -489 0
-480 -490 0
-26 -31 0
-27 -32 0
-28 -33 0
-29 -34 0
-30 -35 0
-61 -81 0
-62 -82 0
-63 -83 0
-64 -84 0
-65 -85 0
-471 -486 0
-472 -487 0
-473 -488 0
-474 -489 0
-475 -490 0
-466 -486 0
-467 -487 0
-468 -488 0
-469 -489 0
-470 -490 0
-271 -286 0
-272 -287 0
-273 -288 0
-274 -289 0
-275 -290 0
-376 -396 0
-377 -397 0
-378 -398 0
-379 -399 0
-380 -400 0
-236 -256 0
-237 -257 0
-238 -258 0
-239 -259 0
-240 -260 0
-276 -281 0
-277 -282 0
-278 -283 0
-279 -284 0
-280 -285 0
-56 -71 0
-57 -72 0
-58 -73 0
-59 -74 0
-60 -75 0
-6 -496 0
-7 -497 0
-8 -498 0
-9 -499 0
-10 -500 0
-251 -271 0
-252 -272 0
-253 -273 0
-254 -274 0
-255 -275 0
-111 -121 0
-112 -122 0
-113 -123 0
-114 -124 0
-115 -125 0
-486 -491 0
-487 -492 0
-488 -493 0
-489 -494 0
-490 -495 0
-266 -276 0
-267 -277 0
-268 -278 0
-269 -279 0
-270 -280 0
-136 -146 0
-137 -147 0
-138 -148 0
-139 -149 0
-140 -150 0
-431 -451 0
-432 -452 0
-433 -453 0
-434 -454 0
-435 -455 0
-376 -381 0
-377 -382 0
-378 -383 0
-379 -384 0
-380 -385 0
-431 -446 0
-432 -447 0
-433 -448 0
-434 -449 0
-435 -450 0
-371 -376 0
-372 -377 0
-373 -378 0
-374 -379 0
-375 -380 0
-331 -336 0
-332 -337 0
-333 -338 0
-334 -339 0
-335 -340 0
-26 -41 0
-27 -42 0
-28 -43 0
-29 -44 0
-30 -45 0
-221 -236 0
-222 -237 0
-223 -238 0
-224 -239 0
-225 -240 0
-11 -491 0
-12 -492 0
-13 -493 0
-14 -494 0
-15 -495 0
-291 -306 0
-292 -307 0
-293 -308 0
-294 -309 0
-295 -310 0
-456 -471 0
-457 -472 0
-458 -473 0
-459 -474 0
-460 -475 0
-216 -221 0
-217 -222 0
-218 -223 0
-219 -224 0
-220 -225 0
-326 -336 0
-327 -337 0
-328 -338 0
-329 -339 0
-330 -340 0
-211 -231 0
-212 -232 0
-213 -233 0
-214 -234 0
-215 -235 0
-21 -36 0
-22 -37 0
-23 -38 0
-24 -39 0
-25 -40 0
-141 -156 0
-142 -157 0
-143 -158 0
-144 -159 0
-145 -160 0
-426 -446 0
-427 -447 0
-428 -448 0
-429 -449 0
-430 -450 0
-161 -171 0
-162 -172 0
-163 -173 0
-164 -174 0
-165 -175 0
-206 -211 0
-207 -212 0
-208 -213 0
-209 -214 0
-210 -215 0
-176 -196 0
-177 -197 0
-178 -198 0
-179 -199 0
-180 -200 0
-96 -106 0
-97 -107 0
-98 -108 0
-99 -109 0
-100 -110 0
-421 -426 0
-422 -427 0
-423 -428 0
-424 -429 0
-425 -430 0
-471 -476 0
-472 -477 0
-473 -478 0
-474 -479 0
-475 -480 0
-201 -216 0
-202 -217 0
-203 -218 0
-204 -219 0
-205 -220 0
-401 -406 0
-402 -407 0
-403 -408 0
-404 -409 0
-405 -410 0
-96 -116 0
-97 -117 0
-98 -118 0
-99 -119 0
-100 -120 0
-141 -146 0
-142 -147 0
-143 -148 0
-144 -149 0
-145 -150 0
-231 -251 0
-232 -252 0
-233 -253 0
-234 -254 0
-235 -255 0
-6 -16 0
-7 -17 0
-8 -18 0
-9 -19 0
-10 -20 0
-226 -231 0
-227 -232 0
-228 -233 0
-229 -234 0
-230 -235 0
-301 -316 0
-302 -317 0
-303 -318 0
-304 -319 0
-305 -320 0
-286 -291 0
-287 -292 0
-288 -293 0
-289 -294 0
-290 -295 0
-451 -466 0
-452 -467 0
-453 -468 0
-454 -469 0
-455 -470 0
-6 -26 0
-7 -27 0
-8 -28 0
-9 -29 0
-10 -30 0
-261 -271 0
-262 -272 0
-263 -273 0
-264 -274 0
-265 -275 0
-231 -236 0
-232 -237 0
-233 -238 0
-234 -239 0
-235 -240 0
-106 -111 0
-107 -112 0
-108 -113 0
-109 -114 0
-110 -115 0
-146 -161 0
-147 -162 0
-148 -163 0
-149 -164 0
-150 -165 0
-31 -36 0
-32 -37 0
-33 -38 0
-34 -39 0
-35 -40 0
-41 -46 0
-42 -47 0
-43 -48 0
-44 -49 0
-45 -50 0
-406 -416 0
-407 -417 0
-408 -418 0
-409 -419 0
-410 -420 0
-271 -276 0
-272 -277 0
-273 -278 0
-274 -279 0
-275 -280 0
-66 -71 0
-67 -72 0
-68 -73 0
-69 -74 0
-70 -75 0
-331 -346 0
-332 -347 0
-333 -348 0
-334 -349 0
-335 -350 0
-191 -206 0
-192 -207 0
-193 -208 0
-194 -209 0
-195 -210 0
-326 -346 0
-327 -347 0
-328 -348 0
-329 -349 0
-330 -350 0
-476 -481 0
-477 -482 0
-478 -483 0
-479 -484 0
-480 -485 0
-396 -401 0
-397 -402 0
-398 -403 0
-399 -404 0
-400 -405 0
-391 -396 0
-392 -397 0
-393 -398 0
-394 -399 0
-395 -400 0
-286 -306 0
-287 -307 0
-288 -308 0
-289 -309 0
-290 -310 0
-476 -491 0
-477 -492 0
-478 -493 0
-479 -494 0
-480 -495 0
-76 -91 0
-77 -92 0
-78 -93 0
-79 -94 0
-80 -95 0
-306 -321 0
-307 -322 0
-308 -323 0
-309 -324 0
-310 -325 0
-321 -326 0
-322 -327 0
-323 -328 0
-324 -329 0
-325 -330 0
-16 -36 0
-17 -37 0
-18 -38 0
-19 -39 0
-20 -40 0
-316 -326 0
-317 -327 0
-318 -328 0
-319 -329 0
-320 -330 0
-246 -261 0
-247 -262 0
-248 -263 0
-249 -264 0
-250 -265 0
-396 -416 0
-397 -417 0
-398 -418 0
-399 -419 0
-400 -420 0
-281 -286 0
-282 -287 0
-283 -288 0
-284 -289 0
-285 -290 0
-41 -51 0
-42 -52 0
-43 -53 0
-44 -54 0
-45 -55 0
-316 -321 0
-317 -322 0
-318 -323 0
-319 -324 0
-320 -325 0
-251 -266 0
-252 -267 0
-253 -268 0
-254 -269 0
-255 -270 0
-276 -291 0
-277 -292 0
-278 -293 0
-279 -294 0
-280 -295 0
-361 -371 0
-362 -372 0
-363 -373 0
-364 -374 0
-365 -375 0
-391 -411 0
-392 -412 0
-393 -413 0
-394 -414 0
-395 -415 0
-441 -456 0
-442 -457 0
-443 -458 0
-444 -459 0
-445 -460 0
-116 -136 0
-117 -137 0
-118 -138 0
-119 -139 0
-120 -140 0
-186 -196 0
-187 -197 0
-188 -198 0
-189 -199 0
-190 -200 0
-146 -156 0
-147 -157 0
-148 -158 0
-149 -159 0
-150 -160 0
-461 -481 0
-462 -482 0
-463 -483 0
-464 -484 0
-465 -485 0
-451 -461 0
-452 -462 0
-453 -463 0
-454 -464 0
-455 -465 0
-266 -281 0
-267 -282 0
-268 -283 0
-269 -284 0
-270 -285 0
-16 -496 0
-17 -497 0
-18 -498 0
-19 -499 0
-20 -500 0
-196 -206 0
-197 -207 0
-198 -208 0
-199 -209 0
-200 -210 0
-216 -226 0
-217 -227 0
-218 -228 0
-219 -229 0
-220 -230 0
-216 -236 0
-217 -237 0
-218 -238 0
-219 -239 0
-220 -240 0
-436 -456 0
-437 -457 0
-438 -458 0
-439 -459 0
-440 -460 0
-121 -131 0
-122 -132 0
-123 -133 0
-124 -134 0
-125 -135 0
-466 -471 0
-467 -472 0
-468 -473 0
-469 -474 0
-470 -475 0
-441 -446 0
-442 -447 0
-443 -448 0
-444 -449 0
-445 -450 0
-206 -226 0
-207 -227 0
-208 -228 0
-209 -229 0
-210 -230 0
-166 -181 0
-167 -182 0
-168 -183 0
-169 -184 0
-170 -185 0
-151 -171 0
-152 -172 0
-153 -173 0
-154 -174 0
-155 -175 0
-461 -476 0
-462 -477 0
-463 -478 0
-464 -479 0
-465 -480 0
-346 -361 0
-347 -362 0
-348 -363 0
-349 -364 0
-350 -365 0
-446 -451 0
-447 -452 0
-448 -453 0
-449 -454 0
-450 -455 0
-241 -246 0
-242 -247 0
-243 -248 0
-244 -249 0
-245 -250 0
-371 -386 0
-372 -387 0
-373 -388 0
-374 -389 0
-375 -390 0
-201 -221 0
-202 -222 0
-203 -223 0
-204 -224 0
-205 -225 0
-81 -96 0
-82 -97 0
-83 -98 0
-84 -99 0
-85 -100 0
-106 -121 0
-107 -122 0
-108 -123 0
-109 -124 0
-110 -125 0
-356 -361 0
-357 -362 0
-358 -363 0
-359 -364 0
-360 -365 0
-61 -76 0
-62 -77 0
-63 -78 0
-64 -79 0
-65 -80 0
-156 -161 0
-157 -162 0
-158 -163 0
-159 -164 0
-160 -165 0
-446 -456 0
-447 -457 0
-448 -458 0
-449 -459 0
-450 -460 0
-86 -96 0
-87 -97 0
-88 -98 0
-89 -99 0
-90 -100 0
-181 -191 0
-182 -192 0
-183 -193 0
-184 -194 0
-185 -195 0
-296 -311 0
-297 -312 0
-298 -313 0
-299 -314 0
-300 -315 0
-341 -356 0
-342 -357 0
-343 -358 0
-344 -359 0
-345 -360 0
-321 -331 0
-322 -332 0
-323 -333 0
-324 -334 0
-325 -335 0
-101 -116 0
-102 -117 0
-103 -118 0
-104 -119 0
-105 -120 0
-111 -116 0
-112 -117 0
-113 -118 0
-114 -119 0
-115 -120 0
-6 -491 0
-7 -492 0
-8 -493 0
-9 -494 0
-10 -495 0
-21 -31 0
-22 -32 0
-23 -33 0
-24 -34 0
-25 -35 0
-411 -431 0
-412 -432 0
-413 -433 0
-414 -434 0
-415 -435 0
-121 -141 0
-122 -142 0
-123 -143 0
-124 -144 0
-125 -145 0
-81 -86 0
-82 -87 0
-83 -88 0
-84 -89 0
-85 -90 0
-51 -56 0
-52 -57 0
-53 -58 0
-54 -59 0
-55 -60 0
-46 -61 0
-47 -62 0
-48 -63 0
-49 -64 0
-50 -65 0
-36 -51 0
-37 -52 0
-38 -53 0
-39 -54 0
-40 -55 0
-156 -176 0
-157 -177 0
-158 -178 0
-159 -179 0
-160 -180 0
-66 -86 0
-67 -87 0
-68 -88 0
-69 -89 0
-70 -90 0
-451 -456 0
-452 -457 0
-453 -458 0
-454 -459 0
-455 -460 0
-121 -136 0
-122 -137 0
-123 -138 0
-124 -139 0
-125 -140 0
-231 -246 0
-232 -247 0
-233 -248 0
-234 -249 0
-235 -250 0
-481 -491 0
-482 -492 0
-483 -493 0
-484 -494 0
-485 -495 0
-446 -461 0
-447 -462 0
-448 -463 0
-449 -464 0
-450 -465 0
-306 -316 0
-307 -317 0
-308 -318 0
-309 -319 0
-310 -320 0
-331 -341 0
-332 -342 0
-333 -343 0
-334 -344 0
-335 -345 0
-211 -216 0
-212 -217 0
-213 -218 0
-214 -219 0
-215 -220 0
-96 -101 0
-97 -102 0
-98 -103 0
-99 -104 0
-100 -105 0
-56 -66 0
-57 -67 0
-58 -68 0
-59 -69 0
-60 -70 0
-321 -336 0
-322 -337 0
-323 -338 0
-324 -339 0
-325 -340 0
-1 -21 0
-2 -22 0
-3 -23 0
-4 -24 0
-5 -25 0
-466 -476 0
-467 -477 0
-468 -478 0
-469 -479 0
-470 -480 0
-386 -406 0
-387 -407 0
-388 -408 0
-389 -409 0
-390 -410 0
-256 -261 0
-257 -262 0
-258 -263 0
-259 -264 0
-260 -265 0
-356 -376 0
-357 -377 0
-358 -378 0
-359 -379 0
-360 -380 0
-181 -196 0
-182 -197 0
-183 -198 0
-184 -199 0
-185 -200 0
-401 -421 0
-402 -422 0
-403 -423 0
-404 -424 0
-405 -425 0
-351 -356 0
-352 -357 0
-353 -358 0
-354 -359 0
-355 -360 0
-341 -361 0
-342 -362 0
-343 -363 0
-344 -364 0
-345 -365 0
-401 -416 0
-402 -417 0
-403 -418 0
-404 -419 0
-405 -420 0
-81 -101 0
-82 -102 0
-83 -103 0
-84 -104 0
-85 -105 0
-381 -396 0
-382 -397 0
-383 -398 0
-384 -399 0
-385 -400 0
-221 -241 0
-222 -242 0
-223 -243 0
-224 -244 0
-225 -245 0
-421 -431 0
-422 -432 0
-423 -433 0
-424 -434 0
-425 -435 0
-256 -276 0
-257 -277 0
-258 -278 0
-259 -279 0
-260 -280 0
-301 -306 0
-302 -307 0
-303 -308 0
-304 -309 0
-305 -310 0
-136 -156 0
-137 -157 0
-138 -158 0
-139 -159 0
-140 -160 0
-1 -496 0
-2 -497 0
-3 -498 0
-4 -499 0
-5 -500 0
-16 -21 0
-17 -22 0
-18 -23 0
-19 -24 0
-20 -25 0
-141 -466 0
-142 -467 0
-143 -468 0
-144 -469 0
-145 -470 0
-386 -456 0
-387 -457 0
-388 -458 0
-389 -459 0
-390 -460 0
-11 -151 0
-12 -152 0
-13 -153 0
-14 -154 0
-15 -155 0
-316 -401 0
-317 -402 0
-318 -403 0
-319 -404 0
-320 -405 0
-1 -256 0
-2 -257 0
-3 -258 0
-4 -259 0
-5 -260 0
-216 -371 0
-217 -372 0
-218 -373 0
-219 -374 0
-220 -375 0
-111 -461 0
-112 -462 0
-113 -463 0
-114 -464 0
-115 -465 0
-246 -286 0
-247 -287 0
-248 -288 0
-249 -289 0
-250 -290 0
-76 -281 0
-77 -282 0
-78 -283 0
-79 -284 0
-80 -285 0
-76 -296 0
-77 -297 0
-78 -298 0
-79 -299 0
-80 -300 0
-26 -196 0
-27 -197 0
-28 -198 0
-29 -199 0
-30 -200 0
-131 -236 0
-132 -237 0
-133 -238 0
-134 -239 0
-135 -240 0
-26 -281 0
-27 -282 0
-28 -283 0
-29 -284 0
-30 -285 0
-241 -321 0
-242 -322 0
-243 -323 0
-244 -324 0
-245 -325 0
-191 -496 0
-192 -497 0
-193 -498 0
-194 -499 0
-195 -500 0
-341 -366 0
-342 -367 0
-343 -368 0
-344 -369 0
-345 -370 0
-76 -271 0
-77 -272 0
-78 -273 0
-79 -274 0
-80 -275 0
-301 -486 0
-302 -487 0
-303 -488 0
-304 -489 0
-305 -490 0
-271 -371 0
-272 -372 0
-273 -373 0
-274 -374 0
-275 -375 0
-61 -396 0
-62 -397 0
-63 -398 0
-64 -399 0
-65 -400 0
-316 -366 0
-317 -367 0
-318 -368 0
-319 -369 0
-320 -370 0
-331 -456 0
-332 -457 0
-333 -458 0
-334 -459 0
-335 -460 0
-1 -296 0
-2 -297 0
-3 -298 0
-4 -299 0
-5 -300 0
-36 -376 0
-37 -377 0
-38 -378 0
-39 -379 0
-40 -380 0
-36 -141 0
-37 -142 0
-38 -143 0
-39 -144 0
-40 -145 0
-171 -466 0
-172 -467 0
-173 -468 0
-174 -469 0
-175 -470 0
-21 -291 0
-22 -292 0
-23 -293 0
-24 -294 0
-25 -295 0
-136 -206 0
-137 -207 0
-138 -208 0
-139 -209 0
-140 -210 0
-326 -466 0
-327 -467 0
-328 -468 0
-329 -469 0
-330 -470 0
-186 -241 0
-187 -242 0
-188 -243 0
-189 -244 0
-190 -245 0
-256 -386 0
-257 -387 0
-258 -388 0
-259 -389 0
-260 -390 0
-41 -481 0
-42 -482 0
-43 -483 0
-44 -484 0
-45 -485 0
-6 -41 0
-7 -42 0
-8 -43 0
-9 -44 0
-10 -45 0
-171 -411 0
-172 -412 0
-173 -413 0
-174 -414 0
-175 -415 0
-156 -476 0
-157 -477 0
-158 -478 0
-159 -479 0
-160 -480 0
-151 -491 0
-152 -492 0
-153 -493 0
-154 -494 0
-155 -495 0
-111 -236 0
-112 -237 0
-113 -238 0
-114 -239 0
-115 -240 0
-26 -336 0
-27 -337 0
-28 -338 0
-29 -339 0
-30 -340 0
-76 -126 0
-77 -127 0
-78 -128 0
-79 -129 0
-80 -130 0
-86 -361 0
-87 -362 0
-88 -363 0
-89 -364 0
-90 -365 0
-221 -441 0
-222 -442 0
-223 -443 0
-224 -444 0
-225 -445 0
-151 -476 0
-152 -477 0
-153 -478 0
-154 -479 0
-155 -480 0
-146 -496 0
-147 -497 0
-148 -498 0
-149 -499 0
-150 -500 0
-181 -246 0
-182 -247 0
-183 -248 0
-184 -249 0
-185 -250 0
-421 -471 0
-422 -472 0
-423 -473 0
-424 -474 0
-425 -475 0
-226 -311 0
-227 -312 0
-228 -313 0
-229 -314 0
-230 -315 0
-21 -51 0
-22 -52 0
-23 -53 0
-24 -54 0
-25 -55 0
-91 -436 0
-92 -437 0
-93 -438 0
-94 -439 0
-95 -440 0
-171 -476 0
-172 -477 0
-173 -478 0
-174 -479 0
-175 -480 0
-71 -446 0
-72 -447 0
-73 -448 0
-74 -449 0
-75 -450 0
-106 -261 0
-107 -262 0
-108 -263 0
-109 -264 0
-110 -265 0
-141 -166 0
-142 -167 0
-143 -168 0
-144 -169 0
-145 -170 0
-131 -421 0
-132 -422 0
-133 -423 0
-134 -424 0
-135 -425 0
-221 -296 0
-222 -297 0
-223 -298 0
-224 -299 0
-225 -300 0
-91 -461 0
-92 -462 0
-93 -463 0
-94 -464 0
-95 -465 0
-26 -391 0
-27 -392 0
-28 -393 0
-29 -394 0
-30 -395 0
-166 -401 0
-167 -402 0
-168 -403 0
-169 -404 0
-170 -405 0
-6 -211 0
-7 -212 0
-8 -213 0
-9 -214 0
-10 -215 0
-106 -446 0
-107 -447 0
-108 -448 0
-109 -449 0
-110 -450 0
-41 -86 0
-42 -87 0
-43 -88 0
-44 -89 0
-45 -90 0
-36 -206 0
-37 -207 0
-38 -208 0
-39 -209 0
-40 -210 0
-116 -431 0
-117 -432 0
-118 -433 0
-119 -434 0
-120 -435 0
-196 -411 0
-197 -412 0
-198 -413 0
-199 -414 0
-200 -415 0
-201 -271 0
-202 -272 0
-203 -273 0
-204 -274 0
-205 -275 0
-326 -456 0
-327 -457 0
-328 -458 0
-329 -459 0
-330 -460 0
-26 -141 0
-27 -142 0
-28 -143 0
-29 -144 0
-30 -145 0
-176 -221 0
-177 -222 0
-178 -223 0
-179 -224 0
-180 -225 0
-11 -46 0
-12 -47 0
-13 -48 0
-14 -49 0
-15 -50 0
-236 -481 0
-237 -482 0
-238 -483 0
-239 -484 0
-240 -485 0
-191 -296 0
-192 -297 0
-193 -298 0
-194 -299 0
-195 -300 0
-21 -326 0
-22 -327 0
-23 -328 0
-24 -329 0
-25 -330 0
-131 -456 0
-132 -457 0
-133 -458 0
-134 -459 0
-135 -460 0
-101 -291 0
-102 -292 0
-103 -293 0
-104 -294 0
-105 -295 0
-81 -496 0
-82 -497 0
-83 -498 0
-84 -499 0
-85 -500 0
-91 -116 0
-92 -117 0
-93 -118 0
-94 -119 0
-95 -120 0
-46 -171 0
-47 -172 0
-48 -173 0
-49 -174 0
-50 -175 0
-321 -436 0
-322 -437 0
-323 -438 0
-324 -439 0
-325 -440 0
-381 -496 0
-382 -497 0
-383 -498 0
-384 -499 0
-385 -500 0
-361 -496 0
-362 -497 0
-363 -498 0
-364 -499 0
-365 -500 0
-51 -181 0
-52 -182 0
-53 -183 0
-54 -184 0
-55 -185 0
-41 -141 0
-42 -142 0
-43 -143 0
-44 -144 0
-45 -145 0
-131 -241 0
-132 -242 0
-133 -243 0
-134 -244 0
-135 -245 0
-106 -256 0
-107 -257 0
-108 -258 0
-109 -259 0
-110 -260 0
-96 -156 0
-97 -157 0
-98 -158 0
-99 -159 0
-100 -160 0
-261 -321 0
-262 -322 0
-263 -323 0
-264 -324 0
-265 -325 0
-166 -376 0
-167 -377 0
-168 -378 0
-169 -379 0
-170 -380 0
-46 -386 0
-47 -387 0
-48 -388 0
-49 -389 0
-50 -390 0
-76 -431 0
-77 -432 0
-78 -433 0
-79 -434 0
-80 -435 0
-191 -351 0
-192 -352 0
-193 -353 0
-194 -354 0
-195 -355 0
-251 -281 0
-252 -282 0
-253 -283 0
-254 -284 0
-255 -285 0
-266 -496 0
-267 -497 0
-268 -498 0
-269 -499 0
-270 -500 0
-271 -461 0
-272 -462 0
-273 -463 0
-274 -464 0
-275 -465 0
-121 -156 0
-122 -157 0
-123 -158 0
-124 -159 0
-125 -160 0
-171 -391 0
-172 -392 0
-173 -393 0
-174 -394 0
-175 -395 0
-1 -176 0
-2 -177 0
-3 -178 0
-4 -179 0
-5 -180 0
-161 -441 0
-162 -442 0
-163 -443 0
-164 -444 0
-165 -445 0
-201 -486 0
-202 -487 0
-203 -488 0
-204 -489 0
-205 -490 0
-116 -261 0
-117 -262 0
-118 -263 0
-119 -264 0
-120 -265 0
-36 -246 0
-37 -247 0
-38 -248 0
-39 -249 0
-40 -250 0
-116 -201 0
-117 -202 0
-118 -203 0
-119 -204 0
-120 -205 0
-121 -281 0
-122 -282 0
-123 -283 0
-124 -284 0
-125 -285 0
-111 -186 0
-112 -187 0
-113 -188 0
-114 -189 0
-115 -190 0
-136 -451 0
-137 -452 0
-138 -453 0
-139 -454 0
-140 -455 0
-321 -451 0
-322 -452 0
-323 -453 0
-324 -454 0
-325 -455 0
-51 -336 0
-52 -337 0
-53 -338 0
-54 -339 0
-55 -340 0
-186 -261 0
-187 -262 0
-188 -263 0
-189 -264 0
-190 -265 0
-396 -426 0
-397 -427 0
-398 -428 0
-399 -429 0
-400 -430 0
-446 -471 0
-447 -472 0
-448 -473 0
-449 -474 0
-450 -475 0
-36 -426 0
-37 -427 0
-38 -428 0
-39 -429 0
-40 -430 0
-176 -371 0
-177 -372 0
-178 -373 0
-179 -374 0
-180 -375 0
-71 -176 0
-72 -177 0
-73 -178 0
-74 -179 0
-75 -180 0
-61 -381 0
-62 -382 0
-63 -383 0
-64 -384 0
-65 -385 0
-206 -431 0
-207 -432 0
-208 -433 0
-209 -434 0
-210 -435 0
-201 -451 0
-202 -452 0
-203 -453 0
-204 -454 0
-205 -455 0
-196 -266 0
-197 -267 0
-198 -268 0
-199 -269 0
-200 -270 0
-31 -66 0
-32 -67 0
-33 -68 0
-34 -69 0
-35 -70 0
-431 -476 0
-432 -477 0
-433 -478 0
-434 -479 0
-435 -480 0
-11 -356 0
-12 -357 0
-13 -358 0
-14 -359 0
-15 -360 0
-21 -336 0
-22 -337 0
-23 -338 0
-24 -339 0
-25 -340 0
-21 -286 0
-22 -287 0
-23 -288 0
-24 -289 0
-25 -290 0
-201 -346 0
-202 -347 0
-203 -348 0
-204 -349 0
-205 -350 0
-241 -481 0
-242 -482 0
-243 -483 0
-244 -484 0
-245 -485 0
-41 -396 0
-42 -397 0
-43 -398 0
-44 -399 0
-45 -400 0
-31 -251 0
-32 -252 0
-33 -253 0
-34 -254 0
-35 -255 0
-411 -451 0
-412 -452 0
-413 -453 0
-414 -454 0
-415 -455 0
-61 -146 0
-62 -147 0
-63 -148 0
-64 -149 0
-65 -150 0
-181 -456 0
-182 -457 0
-183 -458 0
-184 -459 0
-185 -460 0
-56 -421 0
-57 -422 0
-58 -423 0
-59 -424 0
-60 -425 0
-131 -431 0
-132 -432 0
-133 -433 0
-134 -434 0
-135 -435 0
-66 -106 0
-67 -107 0
-68 -108 0
-69 -109 0
-70 -110 0
-186 -276 0
-187 -277 0
-188 -278 0
-189 -279 0
-190 -280 0
-396 -421 0
-397 -422 0
-398 -423 0
-399 -424 0
-400 -425 0
-106 -481 0
-107 -482 0
-108 -483 0
-109 -484 0
-110 -485 0
-391 -416 0
-392 -417 0
-393 -418 0
-394 -419 0
-395 -420 0
-101 -206 0
-102 -207 0
-103 -208 0
-104 -209 0
-105 -210 0
-61 -341 0
-62 -342 0
-63 -343 0
-64 -344 0
-65 -345 0
-266 -446 0
-267 -447 0
-268 -448 0
-269 -449 0
-270 -450 0
-86 -231 0
-87 -232 0
-88 -233 0
-89 -234 0
-90 -235 0
-16 -136 0
-17 -137 0
-18 -138 0
-19 -139 0
-20 -140 0
-36 -476 0
-37 -477 0
-38 -478 0
-39 -479 0
-40 -480 0
-46 -436 0
-47 -437 0
-48 -438 0
-49 -439 0
-50 -440 0
-186 -246 0
-187 -247 0
-188 -248 0
-189 -249 0
-190 -250 0
-331 -356 0
-332 -357 0
-333 -358 0
-334 -359 0
-335 -360 0
-96 -476 0
-97 -477 0
-98 -478 0
-99 -479 0
-100 -480 0
-141 -206 0
-142 -207 0
-143 -208 0
-144 -209 0
-145 -210 0
-11 -136 0
-12 -137 0
-13 -138 0
-14 -139 0
-15 -140 0
-96 -226 0
-97 -227 0
-98 -228 0
-99 -229 0
-100 -230 0
-186 -371 0
-187 -372 0
-188 -373 0
-189 -374 0
-190 -375 0
-61 -221 0
-62 -222 0
-63 -223 0
-64 -224 0
-65 -225 0
-231 -331 0
-232 -332 0
-233 -333 0
-234 -334 0
-235 -335 0
-396 -486 0
-397 -487 0
-398 -488 0
-399 -489 0
-400 -490 0
-66 -236 0
-67 -237 0
-68 -238 0
-69 -239 0
-70 -240 0
-41 -491 0
-42 -492 0
-43 -493 0
-44 -494 0
-45 -495 0
-271 -331 0
-272 -332 0
-273 -333 0
-274 -334 0
-275 -335 0
-236 -421 0
-237 -422 0
-238 -423 0
-239 -424 0
-240 -425 0
-231 -471 0
-232 -472 0
-233 -473 0
-234 -474 0
-235 -475 0
-51 -356 0
-52 -357 0
-53 -358 0
-54 -359 0
-55 -360 0
-211 -361 0
-212 -362 0
-213 -363 0
-214 -364 0
-215 -365 0
-41 -251 0
-42 -252 0
-43 -253 0
-44 -254 0
-45 -255 0
-221 -321 0
-222 -322 0
-223 -323 0
-224 -324 0
-225 -325 0
-71 -476 0
-72 -477 0
-73 -478 0
-74 -479 0
-75 -480 0
-196 -371 0
-197 -372 0
-198 -373 0
-199 -374 0
-200 -375 0
-61 -401 0
-62 -402 0
-63 -403 0
-64 -404 0
-65 -405 0
-326 -481 0
-327 -482 0
-328 -483 0
-329 -484 0
-330 -485 0
-31 -321 0
-32 -322 0
-33 -323 0
-34 -324 0
-35 -325 0
-371 -461 0
-372 -462 0
-373 -463 0
-374 -464 0
-375 -465 0
-71 -381 0
-72 -382 0
-73 -383 0
-74 -384 0
-75 -385 0
-96 -186 0
-97 -187 0
-98 -188 0
-99 -189 0
-100 -190 0
-16 -206 0
-17 -207 0
-18 -208 0
-19 -209 0
-20 -210 0
-206 -441 0
-207 -442 0
-208 -443 0
-209 -444 0
-210 -445 0
-71 -301 0
-72 -302 0
-73 -303 0
-74 -304 0
-75 -305 0
-256 -451 0
-257 -452 0
-258 -453 0
-259 -454 0
-260 -455 0
-116 -366 0
-117 -367 0
-118 -368 0
-119 -369 0
-120 -370 0
-41 -76 0
-42 -77 0
-43 -78 0
-44 -79 0
-45 -80 0
-241 -271 0
-242 -272 0
-243 -273 0
-244 -274 0
-245 -275 0
-26 -86 0
-27 -87 0
-28 -88 0
-29 -89 0
-30 -90 0
-1 -301 0
-2 -302 0
-3 -303 0
-4 -304 0
-5 -305 0
-401 -456 0
-402 -457 0
-403 -458 0
-404 -459 0
-405 -460 0
-281 -436 0
-282 -437 0
-283 -438 0
-284 -439 0
-285 -440 0
-51 -321 0
-52 -322 0
-53 -323 0
-54 -324 0
-55 -325 0
-41 -151 0
-42 -152 0
-43 -153 0
-44 -154 0
-45 -155 0
-416 -471 0
-417 -472 0
-418 -473 0
-419 -474 0
-420 -475 0
